!B3LYP 6-311G** OPT

! FREQ
! nofrozencore

%method
  Z_Tol 1e-14
end

*xyz 0 1
C    -1.807928482    0.000000000    -0.903964241
H    -1.277494536    -0.951333822    -0.827774210
H    -1.091380797    0.821859802    -0.846457593
H    -2.524476167    0.083844265    -0.084372460
H    -2.338362427    0.045629756    -1.857252701
*