!HF 6-311G** OPT

! FREQ
! nofrozencore

%method
  Z_Tol 1e-14
end

*xyz 0 1
C    -1.85957    0.23989    -0.00000
O    -0.66328    0.23989    -0.00000
O    -3.05586    0.23989    -0.00001
*