!MP2 6-311G** OPT

! FREQ
! nofrozencore

%method
  Z_Tol 1e-14
end

*xyz 0 1
O    -1.876933386    0.000000000    -2.327202183
C    -1.876940643    -0.000007025    -1.120553183
H    -1.876929757    0.937663512    -0.525692725
H    -1.876929757    -0.937656488    -0.525671642
*