!B3LYP 6-311G** OPT

! FREQ
! nofrozencore

%method
  Z_Tol 1e-14
end

*xyz 0 1
O    -0.952267674    0.000000000    -0.997704664
H    -0.952267674    0.759337000    -0.401661664
H    -0.952267674    -0.759337000    -0.401661664
*