!UHF 6-311++G** ENERGY

%paras
	R = 0.4, 2.0, 33 # x-axis of H1
end

*xyz 0 1
H    0.0000000    0.0000000    0.0000000
H    {R}                0.0000000    0.0000000
*