!RHF 3-21G OPT
*xyz 0 1
C      0.26399   -0.46477   -0.00000
H     -0.68724    0.10613    0.00000
H      1.11931    0.24176   -0.00000
*