!HF 6-31G opt

*xyz 0 1
H     0.00 0.00 0.00
H     0.75 0.00 0.00
*
