!HF 6-31G opt

%geom
    Scan
        B 0 1 = 0.40, 2.00, 17
    end
end

*int 0 1
H     0 0 0 0.00 0.00 0.00
H     1 0 0 0.75 0.00 0.00
*
