!UHF 6-31G sp

%scf
    BrokenSym 1, 1
end

*int 0 1
H     0.00 0.00 0.00
H     0.75 0.00 0.00
*
